n_students = 15;
n_days = 5;
n_classes = 5;
n_groups = 18;
n_time_units_in_hour = 12;

class_duration = [18, 18, 18, 18, 18];
class_size = [15, 90, 15, 90, 15];
group_class = [1, 1, 1, 1, 2, 2, 2, 2, 3, 3, 3, 4, 5, 5, 1, 2, 3, 4];
group_start = [154, 176, 115, 195, 195, 214, 176, 195, 214, 154, 115, 154, 154, 154, 96, 195, 115, 195];
group_day = [1, 1, 2, 2, 2, 3, 2, 2, 2, 2, 2, 2, 2, 2, 4, 1, 5, 4];
groups_conflicts = array2d(Group, Group, [false, false, false, false, false, false, false, false, false, false, false, false, false, false, false, false, false, false, false, false, false, false, false, false, false, false, false, false, false, false, false, false, false, false, false, false, false, false, false, false, false, false, false, false, false, false, true, false, false, false, false, false, false, false, false, false, false, false, false, false, true, true, false, false, false, false, false, false, false, false, false, false, false, false, false, false, false, false, true, true, true, false, false, false, false, false, false, false, false, false, false, false, false, false, false, false, false, false, false, false, false, false, false, false, false, false, false, false, false, false, false, true, true, false, false, false, false, false, false, false, false, false, false, false, false, false, false, false, false, true, true, false, false, false, false, false, false, false, false, false, false, false, false, false, false, false, false, false, true, false, false, false, false, false, false, false, false, false, false, false, false, false, false, false, false, false, false, false, false, false, false, false, false, true, false, false, false, false, false, false, false, false, true, false, false, false, false, false, false, false, false, false, false, false, false, false, false, false, false, false, false, false, false, false, false, false, false, true, false, false, true, true, false, false, false, false, false, false, false, false, false, false, false, false, false, false, false, true, false, true, false, false, false, false, false, false, false, false, false, false, false, false, false, false, false, true, true, false, false, false, false, false, false, false, false, false, false, false, false, false, false, false, false, false, false, false, false, false, false, false, false, false, false, false, false, false, false, false, false, false, false, false, false, false, false, false, false, false, false, false, false, false, false, false, false, false, false, false, false, false, false, false, false, false, false, false, false, false, false, false, false, false, false, false, false, false, false, false, false, false, false, false, false, false]);

student_break_importance =[0, 0, 0, 0, 3, 3, 5, 4, 0, 1, 5, 5, 4, 3, 2];

student_prefers = array2d(Student, Group, [1, 6, 0, 8, 0, 3, 1, 2, -1, 1, 3, 4, 5, 3, 5, 7, 1, 5, 3, 5, 5, 7, 3, 4, 8, 2, 0, 3, -1, 6, 4, 5, -1, 7, 4, 2, 3, 0, 5, 7, 2, 5, 3, 0, -1, 3, 7, 2, 5, 4, -1, 0, 6, 4, 2, 6, 2, 0, 6, 2, 5, 7, -1, 0, 1, 2, 0, 6, 0, 4, 1, 2, 4, 8, 0, 4, 3, 4, 7, -1, 6, 5, 4, 5, 1, 3, 8, 0, 5, 4, 5, 4, 7, 4, 7, 3, 0, 6, 6, -1, 2, 4, 6, 4, 5, 2, -1, 4, 8, 5, 8, 7, 5, 7, 8, 5, -1, 4, 6, 7, -1, 1, -1, 1, 4, 7, 0, 4, 3, 4, 7, 2, 2, 1, 7, 3, 0, 4, 6, 3, 6, 6, 0, 8, 4, 1, 6, 8, 1, 6, 7, 0, 8, 6, 0, 2, 1, -1, 6, -1, 5, 2, 8, 0, 6, 8, 3, 4, 2, 3, 5, 7, -1, 5, 0, 6, 5, 2, 7, 4, 2, 8, 1, 8, 6, 2, 1, 0, 0, 6, 0, 2, 7, 1, 6, 0, -1, 6, 8, 8, 4, 6, -1, -1, -1, 1, 7, 6, 2, -1, 3, 7, 5, 8, 4, 5, 6, 7, 8, 6, -1, 7, 6, 6, 4, 4, 1, 5, -1, 4, 5, 4, 6, 3, 6, 3, 3, 1, 6, 3, 0, 7, 7, 5, 2, 4, 6, 3, 6, 2, 6, 8, 1, 3, 1, 1, 3, 2, 2, 
8, 8, -1, 8, 2, 3, 4, 7, 2, 3, 5]);